NAME: berlin52
TYPE: TSP
COMMENT: 52 locations in Berlin (Groetschel)
DIMENSION: 52
EDGE_WEIGHT_TYPE: EUC_2D
NODE_COORD_SECTION
1 262 20
2 236 27
3 200 37
4 174 53
5 161 68
6 138 96
7 123 117
8 117 135
9 101 156
10 92 171
11 89 203
12 80 228
13 72 253
14 71 275
15 77 299
16 80 329
17 80 342
18 86 368
19 95 395
20 115 423
21 146 449
22 161 473
23 190 498
24 213 518
25 247 535
26 280 544
27 317 549
28 365 555
29 395 558
30 425 554
31 464 549
32 490 532
33 525 507
34 554 484
35 587 461
36 602 444
37 613 418
38 616 404
39 618 362
40 617 332
41 604 290
42 593 258
43 580 217
44 556 170
45 529 132
46 503 108
47 477 88
48 433 70
49 392 51
50 351 45
EOF
